6167
9355
8827
3780
8994
9950
2282
5418
8078
8873
8134
566
8948
629
4576
3137
9611
9326
6496
6714
7447
4766
8956
10098
6060
9731
8192
8618
8307
4424
4902
591
8229
5840
5706
4491
7041
10091
6209
4254
1830
9629
497
6711
3232
1895
10199
7007
3957
5527
923
